NAME : graph5
COMMENT : H Algorithm Solution by Oscar Riveros [http://twitter.com/maxtuno]
TYPE : TOUR
DIMENSION : 90
TOUR_SECTION
58
82
35
4
33
31
21
64
40
52
41
17
67
45
70
39
34
69
22
76
18
14
88
49
7
43
81
57
44
8
50
46
85
15
11
9
38
78
26
83
29
62
65
48
2
1
90
3
74
73
53
25
84
47
36
77
32
59
19
5
16
72
89
23
55
61
79
86
13
27
37
87
6
66
56
80
71
12
28
30
10
51
42
75
54
20
68
60
63
24
-1
EOF
